Rodando pra 1h

Optimize a model with 250087 rows, 374322 columns and 9218575 nonzeros
Coefficient statistics:
  Matrix range    [1e+00, 1e+04]
  Objective range [2e-01, 2e-01]
  Bounds range    [1e+00, 1e+04]
  RHS range       [1e+00, 1e+04]
Presolve removed 1 rows and 1 columns (presolve time = 8s) ...
Presolve removed 2 rows and 2 columns (presolve time = 12s) ...
Presolve removed 2 rows and 2 columns (presolve time = 17s) ...
Presolve removed 2 rows and 2 columns (presolve time = 21s) ...
Presolve removed 2 rows and 2 columns (presolve time = 26s) ...
Presolve removed 2 rows and 2 columns (presolve time = 30s) ...
Presolve removed 2 rows and 2 columns (presolve time = 35s) ...
Presolve removed 2 rows and 2 columns (presolve time = 40s) ...
Presolve removed 2 rows and 2 columns (presolve time = 46s) ...
Presolve removed 2 rows and 2 columns (presolve time = 51s) ...
Presolve removed 2 rows and 2 columns (presolve time = 57s) ...
Presolve removed 2 rows and 2 columns (presolve time = 60s) ...
Presolve removed 2 rows and 2 columns (presolve time = 66s) ...
Presolve removed 2 rows and 2 columns (presolve time = 72s) ...
Presolve removed 2 rows and 2 columns (presolve time = 75s) ...
Presolve removed 2 rows and 2 columns (presolve time = 81s) ...
Presolve removed 2 rows and 2 columns (presolve time = 86s) ...
Presolve removed 2 rows and 2 columns (presolve time = 92s) ...
Presolve removed 2 rows and 2 columns (presolve time = 95s) ...
Presolve removed 2 rows and 2 columns (presolve time = 101s) ...
Presolve removed 2 rows and 2 columns (presolve time = 110s) ...
Presolve removed 2 rows and 2 columns (presolve time = 112s) ...
Presolve removed 2 rows and 2 columns (presolve time = 124s) ...
Presolve removed 2 rows and 2 columns
Presolve time: 123.69s
Presolved: 250085 rows, 374320 columns, 9218563 nonzeros
Variable types: 249500 continuous, 124820 integer (124814 binary)
Optimize a model with 250085 rows, 374320 columns and 9218563 nonzeros
Coefficient statistics:
  Matrix range    [1e+00, 1e+04]
  Objective range [2e-01, 2e-01]
  Bounds range    [1e+00, 1e+04]
  RHS range       [1e+00, 2e+04]
Presolve removed 0 rows and 0 columns (presolve time = 5s) ...
Presolved: 250085 rows, 374320 columns, 9218563 nonzeros


Root simplex log...

Iteration    Objective       Primal Inf.    Dual Inf.      Time
       0    0.0000000e+00   1.510975e+03   0.000000e+00    148s
    1047    0.0000000e+00   0.000000e+00   0.000000e+00    149s

Root relaxation: objective 0.000000e+00, 1047 iterations, 7.99 seconds

    Nodes    |    Current Node    |     Objective Bounds      |     Work
 Expl Unexpl |  Obj  Depth IntInf | Incumbent    BestBd   Gap | It/Node Time

     0     0    0.00000    0  521          -    0.00000      -     - 3143s
     0     0    0.00000    0  575          -    0.00000      -     - 3569s

Cutting planes:
  Flow cover: 297

Explored 0 nodes (254009 simplex iterations) in 3601.18 seconds
Thread count was 1 (of 4 available processors)

Time limit reached
Best objective -, best bound 0.000000000000e+00, gap -
Tempo: 3594.63 segundos

Error code = 10004
Var::get
